[2026-03-24T15:42:21.967Z] Pipeline "set_vm-3-t1_vm-3-t1_s028_g003" → 2026_03_24_15_42_21_set_vm-3-t1_vm-3-t1_s028_g003_max.sol
Set parameter Username
Set parameter LicenseID to value 2796068
Set parameter LogFile to value "gurobi.log"
Using license file /opt/gurobi/gurobi.lic
Academic license - for non-commercial use only - expires 2027-03-23

Gurobi Optimizer version 13.0.1 build v13.0.1rc0 (linux64 - "Ubuntu 24.04.4 LTS")
Copyright (c) 2026, Gurobi Optimization, LLC

Warning: Duplicate section found (read 'binary') - Is a variable name equal to an LP file format keyword?
Warning: Duplicate section found (read 'binary') - Is a variable name equal to an LP file format keyword?
Warning: Duplicate section found (read 'binary') - Is a variable name equal to an LP file format keyword?
Warning: Duplicate section found (read 'binary') - Is a variable name equal to an LP file format keyword?
Warning: Duplicate section found (read 'binary') - Is a variable name equal to an LP file format keyword?
Warning: Duplicate section found (read 'binary') - Is a variable name equal to an LP file format keyword?
Warning: Duplicate section found (read 'binary') - Is a variable name equal to an LP file format keyword?
Warning: Duplicate section found (read 'binary') - Is a variable name equal to an LP file format keyword?
Warning: Duplicate section found (read 'binary') - Is a variable name equal to an LP file format keyword?
Warning: Duplicate section found (read 'binary') - Is a variable name equal to an LP file format keyword?
Warning: Further warnings of this type will be omitted.
Read LP format model from file /root/bgw/data/uploads/2026_03_24_15_42_21_set_vm-3-t1_vm-3-t1_s028_g003_max.lp
Reading time = 0.01 seconds
: 17475 rows, 854 columns, 53279 nonzeros

Using Gurobi shared library /opt/gurobi1301/linux64/lib/libgurobi.so.13.0.1

CPU model: AMD EPYC-Genoa Processor, instruction set [SSE2|AVX|AVX2|AVX512]
Thread count: 16 physical cores, 16 logical processors, using up to 16 threads

Optimize a model with 17475 rows, 854 columns and 53279 nonzeros (Max)
Model fingerprint: 0x5a878431
Model has 29 linear objective coefficients
Variable types: 67 continuous, 787 integer (787 binary)
Coefficient statistics:
  Matrix range     [1e+00, 4e+01]
  Objective range  [1e+00, 1e+00]
  Bounds range     [1e+00, 1e+00]
  RHS range        [1e+00, 4e+01]

Found heuristic solution: objective 29.0000000
Presolve removed 552 rows and 121 columns
Presolve time: 0.05s
Presolved: 16923 rows, 733 columns, 51084 nonzeros
Variable types: 0 continuous, 733 integer (724 binary)
Found heuristic solution: objective 36.0000000

Root relaxation: objective 1.470000e+02, 933 iterations, 0.09 seconds (0.13 work units)

    Nodes    |    Current Node    |     Objective Bounds      |     Work
 Expl Unexpl |  Obj  Depth IntInf | Incumbent    BestBd   Gap | It/Node Time

     0     0  147.00000    0   56   36.00000  147.00000   308%     -    0s
H    0     0                      45.0000000  147.00000   227%     -    0s
H    0     0                      56.0000000  147.00000   162%     -    0s
H    0     0                      59.0000000  147.00000   149%     -    0s
H    0     0                      63.0000000  147.00000   133%     -    0s
H    0     0                      68.0000000  147.00000   116%     -    0s
H    0     0                      71.0000000  147.00000   107%     -    0s
H    0     0                      72.0000000  147.00000   104%     -    0s
H    0     0                      73.0000000  147.00000   101%     -    0s
     0     0  147.00000    0   53   73.00000  147.00000   101%     -    0s
     0     0  147.00000    0   46   73.00000  147.00000   101%     -    0s
     0     0  147.00000    0   33   73.00000  147.00000   101%     -    0s
H    0     0                      74.0000000  147.00000  98.6%     -    0s
H    0     0                      75.0000000  147.00000  96.0%     -    0s
H    0     0                      76.0000000  147.00000  93.4%     -    0s
     0     0  147.00000    0   56   76.00000  147.00000  93.4%     -    0s
     0     0  147.00000    0   41   76.00000  147.00000  93.4%     -    1s
     0     0  147.00000    0   98   76.00000  147.00000  93.4%     -    1s
     0     0  147.00000    0   31   76.00000  147.00000  93.4%     -    1s
     0     0  144.00000    0   41   76.00000  144.00000  89.5%     -    1s
     0     0  144.00000    0   41   76.00000  144.00000  89.5%     -    1s
     0     0  144.00000    0   39   76.00000  144.00000  89.5%     -    1s
     0     0  144.00000    0   41   76.00000  144.00000  89.5%     -    2s
     0     0  144.00000    0   41   76.00000  144.00000  89.5%     -    2s
     0     0  144.00000    0   41   76.00000  144.00000  89.5%     -    2s
     0     0  144.00000    0   41   76.00000  144.00000  89.5%     -    2s
     0     0  144.00000    0   41   76.00000  144.00000  89.5%     -    2s
     0     0  144.00000    0   41   76.00000  144.00000  89.5%     -    2s
     0     0  144.00000    0   41   76.00000  144.00000  89.5%     -    2s
     0     2  144.00000    0   31   76.00000  144.00000  89.5%     -    2s
   326   252  103.03704   19   26   76.00000  144.00000  89.5%   276    5s
  1147   622  110.68750   11  173   76.00000  143.86111  89.3%   270   10s
  2243  1092  112.44079   16  216   76.00000  140.12945  84.4%   302   15s
  3418  1530   89.00000   25   52   76.00000  137.00000  80.3%   343   20s
  3709  1602  110.22222   20   36   76.00000  137.00000  80.3%   339   25s
  4257  1613  103.52778   22   42   76.00000  134.65741  77.2%   329   30s
  4805  1587   98.55556   23  151   76.00000  131.40205  72.9%   330   35s
  6084  1466   83.72222   29   32   76.00000  120.61111  58.7%   317   40s
  7655  1249 infeasible   29        76.00000  113.83333  49.8%   316   45s
  9064  1248   78.00000   30   34   76.00000  110.35185  45.2%   318   50s
 10965  1483   82.58333   28   36   76.00000  106.62222  40.3%   318   55s
 13028  1618   99.91667   25   62   76.00000  103.60556  36.3%   316   61s
 14004  1626   78.97619   29   67   76.00000  101.83333  34.0%   315   65s
 16107  1684 infeasible   27        76.00000   98.95833  30.2%   316   70s
 17874  1616 infeasible   29        76.00000   97.62037  28.4%   316   75s
 19914  1560   77.08333   30    2   76.00000   95.41667  25.5%   316   80s
 22290  1493     cutoff   35        76.00000   92.80556  22.1%   315   85s
 25012  1097 infeasible   34        76.00000   89.41667  17.7%   312   91s
 27189   679   85.86905   30   32   76.00000   86.91667  14.4%   309   95s

Cutting planes:
  Inf proof: 1

Explored 29880 nodes (9232683 simplex iterations) in 99.85 seconds (249.55 work units)
Thread count was 16 (of 16 available processors)

Solution count 10: 76 76 76 ... 68

Optimal solution found (tolerance 1.00e-04)
Best objective 7.600000000000e+01, best bound 7.600000000000e+01, gap 0.0000%

Wrote result file '/root/bgw/data/results/2026_03_24_15_42_21_set_vm-3-t1_vm-3-t1_s028_g003_max.sol'

